objective value:                                12178
t_x_4                                               1 	(obj:22)
t_x_5                                               1 	(obj:3)
t_x_7                                               1 	(obj:16)
t_x_10                                              1 	(obj:16)
t_x_11                                              1 	(obj:5)
t_x_18                                              1 	(obj:26)
t_x_19                                              1 	(obj:17)
t_x_21                                              1 	(obj:25)
t_x_23                                              1 	(obj:21)
t_x_24                                              1 	(obj:48)
t_x_25                                              1 	(obj:23)
t_x_26                                              1 	(obj:9)
t_x_29                                              1 	(obj:20)
t_x_32                                              1 	(obj:44)
t_x_33                                              1 	(obj:48)
t_x_39                                              1 	(obj:9)
t_x_42                                              1 	(obj:35)
t_x_50                                              1 	(obj:21)
t_x_53                                              1 	(obj:21)
t_x_54                                              1 	(obj:10)
t_x_58                                              1 	(obj:38)
t_x_59                                              1 	(obj:34)
t_x_61                                              1 	(obj:10)
t_x_63                                              1 	(obj:27)
t_x_65                                              1 	(obj:32)
t_x_68                                              1 	(obj:29)
t_x_69                                              1 	(obj:12)
t_x_70                                              1 	(obj:20)
t_x_73                                              1 	(obj:0)
t_x_77                                              1 	(obj:25)
t_x_78                                              1 	(obj:14)
t_x_80                                              1 	(obj:16)
t_x_87                                              1 	(obj:34)
t_x_92                                              1 	(obj:21)
t_x_93                                              1 	(obj:21)
t_x_97                                              1 	(obj:1)
t_x_102                                             1 	(obj:27)
t_x_103                                             1 	(obj:6)
t_x_106                                             1 	(obj:28)
t_x_107                                             1 	(obj:2)
t_x_113                                             1 	(obj:22)
t_x_115                                             1 	(obj:48)
t_x_120                                             1 	(obj:48)
t_x_124                                             1 	(obj:10)
t_x_126                                             1 	(obj:12)
t_x_127                                             1 	(obj:14)
t_x_128                                             1 	(obj:10)
t_x_130                                             1 	(obj:15)
t_x_131                                             1 	(obj:31)
t_x_133                                             1 	(obj:15)
t_x_138                                             1 	(obj:32)
t_x_142                                             1 	(obj:0)
t_x_152                                             1 	(obj:29)
t_x_158                                             1 	(obj:11)
t_x_159                                             1 	(obj:14)
t_x_165                                             1 	(obj:54)
t_x_167                                             1 	(obj:4)
t_x_169                                             1 	(obj:31)
t_x_172                                             1 	(obj:13)
t_x_174                                             1 	(obj:1)
t_x_175                                             1 	(obj:8)
t_x_179                                             1 	(obj:50)
t_x_180                                             1 	(obj:49)
t_x_181                                             1 	(obj:6)
t_x_185                                             1 	(obj:6)
t_x_186                                             1 	(obj:2)
t_x_187                                             1 	(obj:9)
t_x_189                                             1 	(obj:25)
t_x_192                                             1 	(obj:18)
t_x_193                                             1 	(obj:7)
t_x_196                                             1 	(obj:8)
t_x_199                                             1 	(obj:51)
t_x_204                                             1 	(obj:11)
t_x_207                                             1 	(obj:17)
t_x_210                                             1 	(obj:7)
t_x_211                                             1 	(obj:15)
t_x_212                                             1 	(obj:33)
t_x_213                                             1 	(obj:2)
t_x_214                                             1 	(obj:14)
t_x_216                                             1 	(obj:25)
t_x_221                                             1 	(obj:33)
t_x_224                                             1 	(obj:53)
t_x_230                                             1 	(obj:17)
t_x_238                                             1 	(obj:1)
t_x_243                                             1 	(obj:20)
t_x_260                                             1 	(obj:25)
t_x_262                                             1 	(obj:22)
t_x_269                                             1 	(obj:36)
t_x_273                                             1 	(obj:33)
t_x_274                                             1 	(obj:13)
t_x_279                                             1 	(obj:8)
t_x_282                                             1 	(obj:34)
t_x_286                                             1 	(obj:13)
t_x_298                                             1 	(obj:34)
t_x_301                                             1 	(obj:11)
t_x_305                                             1 	(obj:20)
t_x_311                                             1 	(obj:7)
t_x_313                                             1 	(obj:3)
t_x_316                                             1 	(obj:35)
t_x_323                                             1 	(obj:37)
t_x_325                                             1 	(obj:33)
t_x_326                                             1 	(obj:9)
t_x_328                                             1 	(obj:25)
t_x_330                                             1 	(obj:14)
t_x_331                                             1 	(obj:6)
t_x_333                                             1 	(obj:62)
t_x_334                                             1 	(obj:17)
t_x_343                                             1 	(obj:15)
t_x_344                                             1 	(obj:11)
t_x_350                                             1 	(obj:23)
t_x_356                                             1 	(obj:0)
t_x_358                                             1 	(obj:49)
t_x_361                                             1 	(obj:16)
t_x_365                                             1 	(obj:14)
t_x_372                                             1 	(obj:41)
t_x_381                                             1 	(obj:17)
t_x_383                                             1 	(obj:32)
t_x_388                                             1 	(obj:23)
t_x_400                                             1 	(obj:31)
t_x_402                                             1 	(obj:3)
t_x_403                                             1 	(obj:6)
t_x_406                                             1 	(obj:17)
t_x_407                                             1 	(obj:38)
t_x_423                                             1 	(obj:3)
t_x_427                                             1 	(obj:4)
t_x_430                                             1 	(obj:12)
t_x_431                                             1 	(obj:29)
t_x_436                                             1 	(obj:33)
t_x_441                                             1 	(obj:15)
t_x_445                                             1 	(obj:5)
t_x_446                                             1 	(obj:35)
t_x_449                                             1 	(obj:9)
t_x_462                                             1 	(obj:12)
t_x_464                                             1 	(obj:11)
t_x_468                                             1 	(obj:4)
t_x_475                                             1 	(obj:1)
t_x_477                                             1 	(obj:55)
t_x_480                                             1 	(obj:25)
t_x_482                                             1 	(obj:28)
t_x_484                                             1 	(obj:23)
t_x_488                                             1 	(obj:23)
t_x_490                                             1 	(obj:5)
t_x_492                                             1 	(obj:31)
t_x_493                                             1 	(obj:31)
t_x_494                                             1 	(obj:0)
t_x_495                                             1 	(obj:10)
t_x_496                                             1 	(obj:40)
t_x_497                                             1 	(obj:13)
t_x_498                                             1 	(obj:7)
t_x_501                                             1 	(obj:11)
t_x_504                                             1 	(obj:24)
t_x_508                                             1 	(obj:5)
t_x_518                                             1 	(obj:43)
t_x_528                                             1 	(obj:13)
t_x_530                                             1 	(obj:16)
t_x_533                                             1 	(obj:38)
t_x_537                                             1 	(obj:50)
t_x_539                                             1 	(obj:18)
t_x_540                                             1 	(obj:23)
t_x_541                                             1 	(obj:0)
t_x_543                                             1 	(obj:30)
t_x_548                                             1 	(obj:23)
t_x_553                                             1 	(obj:12)
t_x_554                                             1 	(obj:43)
t_x_556                                             1 	(obj:16)
t_x_560                                             1 	(obj:11)
t_x_561                                             1 	(obj:0)
t_x_568                                             1 	(obj:13)
t_x_570                                             1 	(obj:23)
t_x_573                                             1 	(obj:0)
t_x_575                                             1 	(obj:28)
t_x_581                                             1 	(obj:26)
t_x_583                                             1 	(obj:8)
t_x_584                                             1 	(obj:21)
t_x_587                                             1 	(obj:15)
t_x_588                                             1 	(obj:11)
t_x_590                                             1 	(obj:58)
t_x_597                                             1 	(obj:51)
t_x_603                                             1 	(obj:18)
t_x_605                                             1 	(obj:9)
t_x_607                                             1 	(obj:26)
t_x_608                                             1 	(obj:0)
t_x_609                                             1 	(obj:32)
t_x_610                                             1 	(obj:5)
t_x_613                                             1 	(obj:18)
t_x_614                                             1 	(obj:8)
t_x_619                                             1 	(obj:22)
t_x_620                                             1 	(obj:8)
t_x_622                                             1 	(obj:26)
t_x_628                                             1 	(obj:19)
t_x_630                                             1 	(obj:16)
t_x_631                                             1 	(obj:7)
t_x_633                                             1 	(obj:13)
t_x_637                                             1 	(obj:10)
t_x_643                                             1 	(obj:5)
t_x_644                                             1 	(obj:51)
t_x_646                                             1 	(obj:10)
t_x_650                                             1 	(obj:30)
t_x_662                                             1 	(obj:39)
t_x_667                                             1 	(obj:16)
t_x_670                                             1 	(obj:6)
t_x_673                                             1 	(obj:41)
t_x_676                                             1 	(obj:31)
t_x_678                                             1 	(obj:8)
t_x_680                                             1 	(obj:32)
t_x_684                                             1 	(obj:24)
t_x_692                                             1 	(obj:29)
t_x_695                                             1 	(obj:26)
t_x_698                                             1 	(obj:5)
t_x_700                                             1 	(obj:3)
t_x_702                                             1 	(obj:0)
t_x_707                                             1 	(obj:0)
t_x_717                                             1 	(obj:14)
t_x_722                                             1 	(obj:7)
t_x_725                                             1 	(obj:41)
t_x_728                                             1 	(obj:0)
t_x_729                                             1 	(obj:22)
t_x_745                                             1 	(obj:3)
t_x_746                                             1 	(obj:10)
t_x_749                                             1 	(obj:14)
t_x_751                                             1 	(obj:13)
t_x_755                                             1 	(obj:31)
t_x_762                                             1 	(obj:45)
t_x_763                                             1 	(obj:14)
t_x_771                                             1 	(obj:12)
t_x_772                                             1 	(obj:25)
t_x_773                                             1 	(obj:10)
t_x_777                                             1 	(obj:3)
t_x_782                                             1 	(obj:3)
t_x_791                                             1 	(obj:13)
t_x_793                                             1 	(obj:32)
t_x_794                                             1 	(obj:24)
t_x_800                                             1 	(obj:41)
t_x_803                                             1 	(obj:6)
t_x_804                                             1 	(obj:54)
t_x_805                                             1 	(obj:0)
t_x_809                                             1 	(obj:18)
t_x_810                                             1 	(obj:49)
t_x_813                                             1 	(obj:47)
t_x_832                                             1 	(obj:12)
t_x_841                                             1 	(obj:9)
t_x_842                                             1 	(obj:1)
t_x_843                                             1 	(obj:6)
t_x_845                                             1 	(obj:52)
t_x_846                                             1 	(obj:11)
t_x_847                                             1 	(obj:30)
t_x_848                                             1 	(obj:43)
t_x_850                                             1 	(obj:8)
t_x_857                                             1 	(obj:8)
t_x_861                                             1 	(obj:17)
t_x_863                                             1 	(obj:9)
t_x_864                                             1 	(obj:2)
t_x_867                                             1 	(obj:18)
t_x_875                                             1 	(obj:11)
t_x_877                                             1 	(obj:20)
t_x_881                                             1 	(obj:1)
t_x_885                                             1 	(obj:9)
t_x_886                                             1 	(obj:23)
t_x_892                                             1 	(obj:56)
t_x_893                                             1 	(obj:38)
t_x_894                                             1 	(obj:7)
t_x_896                                             1 	(obj:12)
t_x_906                                             1 	(obj:17)
t_x_907                                             1 	(obj:0)
t_x_909                                             1 	(obj:15)
t_x_911                                             1 	(obj:2)
t_x_917                                             1 	(obj:8)
t_x_923                                             1 	(obj:17)
t_x_927                                             1 	(obj:61)
t_x_931                                             1 	(obj:4)
t_x_932                                             1 	(obj:14)
t_x_933                                             1 	(obj:0)
t_x_938                                             1 	(obj:15)
t_x_943                                             1 	(obj:13)
t_x_946                                             1 	(obj:15)
t_x_950                                             1 	(obj:64)
t_x_952                                             1 	(obj:11)
t_x_955                                             1 	(obj:20)
t_x_958                                             1 	(obj:10)
t_x_961                                             1 	(obj:4)
t_x_969                                             1 	(obj:14)
t_x_975                                             1 	(obj:28)
t_x_977                                             1 	(obj:58)
t_x_978                                             1 	(obj:48)
t_x_980                                             1 	(obj:16)
t_x_981                                             1 	(obj:11)
t_x_985                                             1 	(obj:4)
t_x_987                                             1 	(obj:15)
t_x_989                                             1 	(obj:8)
t_x_991                                             1 	(obj:50)
t_x_992                                             1 	(obj:10)
t_x_994                                             1 	(obj:49)
t_x_999                                             1 	(obj:11)
t_x_1004                                            1 	(obj:25)
t_x_1011                                            1 	(obj:41)
t_x_1012                                            1 	(obj:23)
t_x_1013                                            1 	(obj:11)
t_x_1014                                            1 	(obj:0)
t_x_1019                                            1 	(obj:7)
t_x_1023                                            1 	(obj:21)
t_x_1029                                            1 	(obj:0)
t_x_1031                                            1 	(obj:32)
t_x_1032                                            1 	(obj:0)
t_x_1033                                            1 	(obj:9)
t_x_1035                                            1 	(obj:27)
t_x_1036                                            1 	(obj:14)
t_x_1040                                            1 	(obj:56)
t_x_1042                                            1 	(obj:10)
t_x_1043                                            1 	(obj:55)
t_x_1045                                            1 	(obj:41)
t_x_1046                                            1 	(obj:1)
t_x_1051                                            1 	(obj:10)
t_x_1054                                            1 	(obj:20)
t_x_1056                                            1 	(obj:53)
t_x_1062                                            1 	(obj:26)
t_x_1063                                            1 	(obj:11)
t_x_1064                                            1 	(obj:10)
t_x_1067                                            1 	(obj:16)
t_x_1073                                            1 	(obj:17)
t_x_1079                                            1 	(obj:26)
t_x_1081                                            1 	(obj:35)
t_x_1083                                            1 	(obj:22)
t_x_1086                                            1 	(obj:18)
t_x_1087                                            1 	(obj:30)
t_x_1089                                            1 	(obj:13)
t_x_1107                                            1 	(obj:18)
t_x_1111                                            1 	(obj:5)
t_x_1112                                            1 	(obj:4)
t_x_1120                                            1 	(obj:17)
t_x_1125                                            1 	(obj:14)
t_x_1126                                            1 	(obj:1)
t_x_1127                                            1 	(obj:0)
t_x_1131                                            1 	(obj:12)
t_x_1135                                            1 	(obj:17)
t_x_1136                                            1 	(obj:30)
t_x_1137                                            1 	(obj:51)
t_x_1138                                            1 	(obj:25)
t_x_1140                                            1 	(obj:34)
t_x_1141                                            1 	(obj:2)
t_x_1148                                            1 	(obj:2)
t_x_1149                                            1 	(obj:30)
t_x_1152                                            1 	(obj:34)
t_x_1154                                            1 	(obj:16)
t_x_1157                                            1 	(obj:48)
t_x_1158                                            1 	(obj:8)
t_x_1164                                            1 	(obj:25)
t_x_1171                                            1 	(obj:4)
t_x_1174                                            1 	(obj:24)
t_x_1177                                            1 	(obj:46)
t_x_1189                                            1 	(obj:13)
t_x_1192                                            1 	(obj:33)
t_x_1196                                            1 	(obj:34)
t_x_1204                                            1 	(obj:34)
t_x_1208                                            1 	(obj:15)
t_x_1210                                            1 	(obj:1)
t_x_1212                                            1 	(obj:11)
t_x_1213                                            1 	(obj:14)
t_x_1215                                            1 	(obj:44)
t_x_1216                                            1 	(obj:1)
t_x_1217                                            1 	(obj:5)
t_x_1219                                            1 	(obj:3)
t_x_1220                                            1 	(obj:11)
t_x_1221                                            1 	(obj:13)
t_x_1227                                            1 	(obj:17)
t_x_1230                                            1 	(obj:13)
t_x_1233                                            1 	(obj:3)
t_x_1235                                            1 	(obj:12)
t_x_1236                                            1 	(obj:15)
t_x_1237                                            1 	(obj:11)
t_x_1238                                            1 	(obj:9)
t_x_1239                                            1 	(obj:25)
t_x_1241                                            1 	(obj:29)
t_x_1242                                            1 	(obj:15)
t_x_1246                                            1 	(obj:6)
t_x_1249                                            1 	(obj:21)
t_x_1251                                            1 	(obj:43)
t_x_1260                                            1 	(obj:23)
t_x_1266                                            1 	(obj:10)
t_x_1269                                            1 	(obj:46)
t_x_1271                                            1 	(obj:28)
t_x_1274                                            1 	(obj:8)
t_x_1275                                            1 	(obj:28)
t_x_1276                                            1 	(obj:36)
t_x_1281                                            1 	(obj:29)
t_x_1282                                            1 	(obj:23)
t_x_1287                                            1 	(obj:6)
t_x_1289                                            1 	(obj:15)
t_x_1290                                            1 	(obj:11)
t_x_1292                                            1 	(obj:20)
t_x_1293                                            1 	(obj:24)
t_x_1297                                            1 	(obj:23)
t_x_1302                                            1 	(obj:6)
t_x_1304                                            1 	(obj:28)
t_x_1308                                            1 	(obj:12)
t_x_1317                                            1 	(obj:42)
t_x_1322                                            1 	(obj:23)
t_x_1324                                            1 	(obj:9)
t_x_1326                                            1 	(obj:0)
t_x_1328                                            1 	(obj:4)
t_x_1332                                            1 	(obj:42)
t_x_1339                                            1 	(obj:39)
t_x_1340                                            1 	(obj:8)
t_x_1342                                            1 	(obj:10)
t_x_1347                                            1 	(obj:40)
t_x_1348                                            1 	(obj:59)
t_x_1353                                            1 	(obj:44)
t_x_1357                                            1 	(obj:59)
t_x_1361                                            1 	(obj:15)
t_x_1362                                            1 	(obj:2)
t_x_1363                                            1 	(obj:40)
t_x_1366                                            1 	(obj:24)
t_x_1369                                            1 	(obj:8)
t_x_1371                                            1 	(obj:29)
t_x_1378                                            1 	(obj:8)
t_x_1379                                            1 	(obj:33)
t_x_1385                                            1 	(obj:8)
t_x_1387                                            1 	(obj:13)
t_x_1388                                            1 	(obj:6)
t_x_1399                                            1 	(obj:18)
t_x_1410                                            1 	(obj:18)
t_x_1413                                            1 	(obj:47)
t_x_1419                                            1 	(obj:37)
t_x_1422                                            1 	(obj:0)
t_x_1425                                            1 	(obj:43)
t_x_1426                                            1 	(obj:3)
t_x_1428                                            1 	(obj:41)
t_x_1429                                            1 	(obj:19)
t_x_1430                                            1 	(obj:18)
t_x_1431                                            1 	(obj:41)
t_x_1432                                            1 	(obj:9)
t_x_1433                                            1 	(obj:25)
t_x_1438                                            1 	(obj:35)
t_x_1443                                            1 	(obj:75)
t_x_1451                                            1 	(obj:22)
t_x_1460                                            1 	(obj:5)
t_x_1467                                            1 	(obj:42)
t_x_1469                                            1 	(obj:16)
t_x_1471                                            1 	(obj:1)
t_x_1472                                            1 	(obj:61)
t_x_1477                                            1 	(obj:17)
t_x_1483                                            1 	(obj:13)
t_x_1484                                            1 	(obj:7)
t_x_1488                                            1 	(obj:4)
t_x_1491                                            1 	(obj:10)
t_x_1496                                            1 	(obj:4)
t_x_1498                                            1 	(obj:11)
t_x_1501                                            1 	(obj:44)
t_x_1504                                            1 	(obj:13)
t_x_1505                                            1 	(obj:26)
t_x_1508                                            1 	(obj:14)
t_x_1509                                            1 	(obj:8)
t_x_1512                                            1 	(obj:10)
t_x_1513                                            1 	(obj:31)
t_x_1514                                            1 	(obj:2)
t_x_1516                                            1 	(obj:43)
t_x_1517                                            1 	(obj:16)
t_x_1518                                            1 	(obj:21)
t_x_1521                                            1 	(obj:14)
t_x_1522                                            1 	(obj:1)
t_x_1531                                            1 	(obj:11)
t_x_1539                                            1 	(obj:9)
t_x_1542                                            1 	(obj:39)
t_x_1544                                            1 	(obj:2)
t_x_1547                                            1 	(obj:3)
t_x_1548                                            1 	(obj:33)
t_x_1550                                            1 	(obj:23)
t_x_1554                                            1 	(obj:33)
t_x_1556                                            1 	(obj:24)
t_x_1560                                            1 	(obj:24)
t_x_1563                                            1 	(obj:17)
t_x_1564                                            1 	(obj:0)
t_x_1567                                            1 	(obj:16)
t_x_1569                                            1 	(obj:10)
t_x_1571                                            1 	(obj:34)
t_x_1573                                            1 	(obj:12)
t_x_1577                                            1 	(obj:46)
t_x_1578                                            1 	(obj:18)
t_x_1586                                            1 	(obj:30)
t_x_1587                                            1 	(obj:57)
t_x_1588                                            1 	(obj:38)
t_x_1589                                            1 	(obj:28)
t_x_1590                                            1 	(obj:17)
t_x_1591                                            1 	(obj:9)
t_x_1595                                            1 	(obj:3)
t_x_1597                                            1 	(obj:9)
t_x_1598                                            1 	(obj:5)
t_x_1602                                            1 	(obj:9)
t_x_1607                                            1 	(obj:39)
t_x_1609                                            1 	(obj:16)
t_x_1611                                            1 	(obj:7)
t_x_1612                                            1 	(obj:7)
t_x_1617                                            1 	(obj:0)
t_x_1620                                            1 	(obj:71)
t_x_1630                                            1 	(obj:29)
t_x_1631                                            1 	(obj:11)
t_x_1632                                            1 	(obj:15)
t_x_1633                                            1 	(obj:10)
t_x_1634                                            1 	(obj:3)
t_x_1639                                            1 	(obj:9)
t_x_1650                                            1 	(obj:22)
t_x_1651                                            1 	(obj:32)
t_x_1653                                            1 	(obj:20)
t_x_1657                                            1 	(obj:2)
t_x_1658                                            1 	(obj:74)
t_x_1660                                            1 	(obj:27)
t_x_1662                                            1 	(obj:6)
t_x_1665                                            1 	(obj:4)
t_x_1668                                            1 	(obj:30)
t_x_1671                                            1 	(obj:42)
t_x_1673                                            1 	(obj:2)
t_x_1674                                            1 	(obj:4)
t_x_1675                                            1 	(obj:17)
t_x_1677                                            1 	(obj:3)
t_x_1678                                            1 	(obj:23)
t_x_1679                                            1 	(obj:16)
t_x_1683                                            1 	(obj:18)
t_x_1686                                            1 	(obj:3)
t_x_1688                                            1 	(obj:16)
t_x_1689                                            1 	(obj:15)
t_x_1692                                            1 	(obj:2)
t_x_1694                                            1 	(obj:36)
t_x_1695                                            1 	(obj:27)
t_x_1700                                            1 	(obj:0)
t_x_1701                                            1 	(obj:20)
t_x_1704                                            1 	(obj:24)
t_x_1711                                            1 	(obj:1)
t_x_1713                                            1 	(obj:50)
t_x_1714                                            1 	(obj:26)
t_x_1717                                            1 	(obj:0)
t_x_1723                                            1 	(obj:8)
t_x_1727                                            1 	(obj:6)
t_x_1729                                            1 	(obj:2)
t_x_1731                                            1 	(obj:2)
t_x_1732                                            1 	(obj:71)
t_x_1735                                            1 	(obj:9)
t_x_1736                                            1 	(obj:3)
t_x_1744                                            1 	(obj:9)
t_x_1746                                            1 	(obj:4)
t_x_1751                                            1 	(obj:33)
t_x_1754                                            1 	(obj:0)
t_x_1760                                            1 	(obj:23)
t_x_1765                                            1 	(obj:14)
t_x_1767                                            1 	(obj:13)
t_x_1774                                            1 	(obj:20)
t_x_1776                                            1 	(obj:62)
t_x_1778                                            1 	(obj:13)
t_x_1785                                            1 	(obj:1)
t_x_1787                                            1 	(obj:11)
t_x_1788                                            1 	(obj:43)
t_x_1793                                            1 	(obj:39)
t_x_1795                                            1 	(obj:3)
t_x_1797                                            1 	(obj:16)
t_x_1799                                            1 	(obj:18)
t_x_1802                                            1 	(obj:3)
t_x_1804                                            1 	(obj:27)
t_x_1814                                            1 	(obj:20)
t_x_1816                                            1 	(obj:19)
t_x_1817                                            1 	(obj:1)
t_x_1820                                            1 	(obj:15)
t_x_1821                                            1 	(obj:24)
t_x_1823                                            1 	(obj:11)
t_x_1828                                            1 	(obj:17)
t_x_1831                                            1 	(obj:38)
t_x_1836                                            1 	(obj:28)
t_x_1837                                            1 	(obj:0)
t_x_1839                                            1 	(obj:28)
t_x_1844                                            1 	(obj:32)
t_x_1845                                            1 	(obj:0)
t_x_1846                                            1 	(obj:20)
t_x_1853                                            1 	(obj:39)
t_x_1854                                            1 	(obj:6)
t_x_1856                                            1 	(obj:20)
t_x_1857                                            1 	(obj:10)
t_x_1859                                            1 	(obj:33)
t_x_1860                                            1 	(obj:39)
t_x_1861                                            1 	(obj:11)
t_x_1864                                            1 	(obj:28)
t_x_1866                                            1 	(obj:28)
t_x_1873                                            1 	(obj:28)
t_x_1876                                            1 	(obj:4)
t_x_1880                                            1 	(obj:15)
t_x_1885                                            1 	(obj:18)
t_x_1886                                            1 	(obj:15)
t_x_1888                                            1 	(obj:17)
t_x_1890                                            1 	(obj:37)
t_x_1895                                            1 	(obj:31)
t_x_1897                                            1 	(obj:1)
t_x_1900                                            1 	(obj:1)
t_x_1901                                            1 	(obj:39)
t_x_1904                                            1 	(obj:16)
t_x_1906                                            1 	(obj:23)
t_x_1907                                            1 	(obj:4)
t_x_1910                                            1 	(obj:6)
t_x_1911                                            1 	(obj:12)
t_x_1913                                            1 	(obj:26)
t_x_1916                                            1 	(obj:0)
t_x_1919                                            1 	(obj:38)
t_x_1922                                            1 	(obj:5)
t_x_1924                                            1 	(obj:28)
t_x_1928                                            1 	(obj:5)
t_x_1931                                            1 	(obj:0)
t_x_1939                                            1 	(obj:24)
t_x_1943                                            1 	(obj:3)
t_x_1944                                            1 	(obj:43)
t_x_1947                                            1 	(obj:27)
t_x_1952                                            1 	(obj:0)
t_x_1959                                            1 	(obj:5)
t_x_1964                                            1 	(obj:14)
t_x_1967                                            1 	(obj:45)
t_x_1974                                            1 	(obj:32)
t_x_1981                                            1 	(obj:7)
t_x_1985                                            1 	(obj:26)
t_x_1986                                            1 	(obj:17)
t_x_1990                                            1 	(obj:5)
t_x_1992                                            1 	(obj:20)
t_x_1994                                            1 	(obj:18)
t_x_1996                                            1 	(obj:18)
